\ENCODING=ISO-8859-1
\Problem name: ISHOP-U_Chicas

Minimize
 obj1: 14.7 S#0#2 + 27.74 S#0#5 + 30.01 S#0#6 + 21.81 S#0#9 + 9.02 y(0)
       + 35.07 S#1#0 + 30.44 S#1#2 + 7.05 S#1#6 + 21.37 S#1#7 + 21.71 S#1#8
       + 9.64 y(1) + 6.39 S#2#0 + 21.6 S#2#2 + 42.24 S#2#5 + 7.69 y(2)
       + 21.65 S#3#3 + 33.98 S#3#5 + 6.86 y(3) + 11.02 S#4#0 + 44.72 S#4#1
       + 28.75 S#4#3 + 39.96 S#4#7 + 9.99 S#4#8 + 11.8 S#4#9 + 8.4 y(4)
       + 23.37 S#5#0 + 6.88 S#5#1 + 21.57 S#5#5 + 18.19 S#5#9 + 7.74 y(5)
       + 27.21 S#6#0 + 47.18 S#6#2 + 36.44 S#6#8 + 2.72 y(6) + 12.41 S#7#5
       + 5.59 y(7) + 43.96 S#8#1 + 44.64 S#8#2 + 30.44 S#8#4 + 5.8 S#8#6
       + 7.62 S#8#7 + 14.97 S#8#8 + 1.16 y(8) + 26.93 S#9#0 + 24.07 S#9#6
       + 49.48 S#9#7 + 31.52 S#9#8 + 7.48 y(9) + 27.08 S#10#0 + 26.35 S#10#2
       + 16.84 S#10#6 + 49.22 S#10#8 + 3.84 y(10) + 31.57 S#11#0 + 27.7 S#11#1
       + 6.11 S#11#3 + 33.56 S#11#8 + 24.11 S#11#9 + 7.12 y(11) + 30.33 S#12#0
       + 17.06 S#12#1 + 20.86 S#12#4 + 39.74 S#12#6 + 32.43 S#12#8 + 1.14 y(12)
       + 33.26 S#13#0 + 45.57 S#13#2 + 46.62 S#13#3 + 36.7 S#13#5 + 7.53 y(13)
       + 29.68 S#14#0 + 42.41 S#14#1 + 20.38 S#14#3 + 24.41 S#14#4
       + 14.6 S#14#6 + 32.16 S#14#8 + 8.89 y(14) + 41.2 S#15#1 + 30.67 S#15#2
       + 35.65 S#15#3 + 48.11 S#15#5 + 31.36 S#15#6 + 16.08 S#15#7 + 6.94 y(15)
       + 22.59 S#16#0 + 33.63 S#16#1 + 40.63 S#16#2 + 34.95 S#16#4
       + 37.2 S#16#5 + 7.84 S#16#6 + 35.57 S#16#9 + 5.4 y(16) + 16.14 S#17#1
       + 47.84 S#17#8 + 34.04 S#17#9 + 0.02 y(17) + 15.15 S#18#2 + 5.9 S#18#8
       + 5.64 y(18) + 8.51 S#19#3 + 13.4 S#19#4 + 43.61 S#19#5 + 33.14 S#19#8
       + 4.54 y(19) + 43.38 S#20#0 + 35.47 S#20#1 + 12.57 S#20#6 + 45.31 S#20#7
       + 7.15 y(20) + 12.23 S#21#4 + 20.91 S#21#5 + 47.28 S#21#7 + 18.92 S#21#8
       + 1.09 y(21) + 45.55 S#22#4 + 14.43 S#22#6 + 0.49 y(22) + 46.1 S#23#1
       + 21.18 S#23#7 + 30.77 S#23#8 + 47.59 S#23#9 + 2.44 y(23) + 11.12 S#24#2
       + 15.47 S#24#3 + 28.79 S#24#4 + 25.47 S#24#8 + 28.32 S#24#9 + 0.85 y(24)
       + 0 x276 + 0 x277 + 0 x280 + 0 x281 + 0 x282 + 0 x285 + 0 x286 + 0 x287
       + 0 x290 + 0 x291 + 0 x292 + 0 x295 + 0 x296 + 0 x297 + 0 x300 + 0 x301
       + 0 x302 + 0 x305 + 0 x306 + 0 x307 + 0 x310 + 0 x311 + 0 x312 + 0 x315
       + 0 x316 + 0 x317 + 0 x320 + 0 x321 + 0 x322 + 0 x325 + 0 x326 + 0 x327
       + 0 x330 + 0 x331 + 0 x332 + 0 x335 + 0 x336 + 0 x337 + 0 x340 + 0 x341
       + 0 x342 + 0 x345 + 0 x346 + 0 x347 + 0 x350 + 0 x351 + 0 x352 + 0 x355
       + 0 x356 + 0 x357 + 0 x360 + 0 x361 + 0 x362 + 0 x365 + 0 x366 + 0 x367
       + 0 x370 + 0 x371 + 0 x372 + 0 x375 + 0 x376 + 0 x377 + 0 x380 + 0 x381
       + 0 x382 + 0 x385 + 0 x386 + 0 x387 + 0 x390 + 0 x391 + 0 x392 + 0 x395
       + 0 x396 + 0 x397 + 0 x400
Subject To
 c1:   x278 + x279  = 1
 c2:   x283 + x284  = 1
 c3:   x288 + x289  = 1
 c4:   x293 + x294  = 1
 c5:   x298 + x299  = 1
 c6:   x303 + x304  = 1
 c7:   x308 + x309  = 1
 c8:   x313 + x314  = 1
 c9:   x318 + x319  = 1
 c10:  x323 + x324  = 1
 c11:  x328 + x329  = 1
 c12:  x333 + x334  = 1
 c13:  x338 + x339  = 1
 c14:  x343 + x344  = 1
 c15:  x348 + x349  = 1
 c16:  x353 + x354  = 1
 c17:  x358 + x359  = 1
 c18:  x363 + x364  = 1
 c19:  x368 + x369  = 1
 c20:  x373 + x374  = 1
 c21:  x378 + x379  = 1
 c22:  x383 + x384  = 1
 c23:  x388 + x389  = 1
 c24:  x393 + x394  = 1
 c25:  x398 + x399  = 1
 c26:  S#0#0 <= 0
 c27:  S#0#1 <= 0
 c28:  S#0#2 <= 10
 c29:  S#0#3 <= 0
 c30:  S#0#4 <= 0
 c31:  S#0#5 <= 7
 c32:  S#0#6 <= 9
 c33:  S#0#7 <= 0
 c34:  S#0#8 <= 0
 c35:  S#0#9 <= 4
 c36:  S#1#0 <= 1
 c37:  S#1#1 <= 0
 c38:  S#1#2 <= 6
 c39:  S#1#3 <= 0
 c40:  S#1#4 <= 0
 c41:  S#1#5 <= 0
 c42:  S#1#6 <= 5
 c43:  S#1#7 <= 6
 c44:  S#1#8 <= 1
 c45:  S#1#9 <= 0
 c46:  S#2#0 <= 7
 c47:  S#2#1 <= 0
 c48:  S#2#2 <= 5
 c49:  S#2#3 <= 0
 c50:  S#2#4 <= 0
 c51:  S#2#5 <= 9
 c52:  S#2#6 <= 0
 c53:  S#2#7 <= 0
 c54:  S#2#8 <= 0
 c55:  S#2#9 <= 0
 c56:  S#3#0 <= 0
 c57:  S#3#1 <= 0
 c58:  S#3#2 <= 0
 c59:  S#3#3 <= 4
 c60:  S#3#4 <= 0
 c61:  S#3#5 <= 5
 c62:  S#3#6 <= 0
 c63:  S#3#7 <= 0
 c64:  S#3#8 <= 0
 c65:  S#3#9 <= 0
 c66:  S#4#0 <= 8
 c67:  S#4#1 <= 8
 c68:  S#4#2 <= 0
 c69:  S#4#3 <= 9
 c70:  S#4#4 <= 0
 c71:  S#4#5 <= 0
 c72:  S#4#6 <= 0
 c73:  S#4#7 <= 1
 c74:  S#4#8 <= 10
 c75:  S#4#9 <= 8
 c76:  S#5#0 <= 5
 c77:  S#5#1 <= 1
 c78:  S#5#2 <= 0
 c79:  S#5#3 <= 0
 c80:  S#5#4 <= 0
 c81:  S#5#5 <= 10
 c82:  S#5#6 <= 0
 c83:  S#5#7 <= 0
 c84:  S#5#8 <= 0
 c85:  S#5#9 <= 9
 c86:  S#6#0 <= 5
 c87:  S#6#1 <= 0
 c88:  S#6#2 <= 9
 c89:  S#6#3 <= 0
 c90:  S#6#4 <= 0
 c91:  S#6#5 <= 0
 c92:  S#6#6 <= 0
 c93:  S#6#7 <= 0
 c94:  S#6#8 <= 8
 c95:  S#6#9 <= 0
 c96:  S#7#0 <= 0
 c97:  S#7#1 <= 0
 c98:  S#7#2 <= 0
 c99:  S#7#3 <= 0
 c100: S#7#4 <= 0
 c101: S#7#5 <= 3
 c102: S#7#6 <= 0
 c103: S#7#7 <= 0
 c104: S#7#8 <= 0
 c105: S#7#9 <= 0
 c106: S#8#0 <= 0
 c107: S#8#1 <= 8
 c108: S#8#2 <= 9
 c109: S#8#3 <= 0
 c110: S#8#4 <= 1
 c111: S#8#5 <= 0
 c112: S#8#6 <= 7
 c113: S#8#7 <= 5
 c114: S#8#8 <= 1
 c115: S#8#9 <= 0
 c116: S#9#0 <= 6
 c117: S#9#1 <= 0
 c118: S#9#2 <= 0
 c119: S#9#3 <= 0
 c120: S#9#4 <= 0
 c121: S#9#5 <= 0
 c122: S#9#6 <= 9
 c123: S#9#7 <= 2
 c124: S#9#8 <= 9
 c125: S#9#9 <= 0
 c126: S#10#0 <= 8
 c127: S#10#1 <= 0
 c128: S#10#2 <= 5
 c129: S#10#3 <= 0
 c130: S#10#4 <= 0
 c131: S#10#5 <= 0
 c132: S#10#6 <= 7
 c133: S#10#7 <= 0
 c134: S#10#8 <= 7
 c135: S#10#9 <= 0
 c136: S#11#0 <= 10
 c137: S#11#1 <= 6
 c138: S#11#2 <= 0
 c139: S#11#3 <= 5
 c140: S#11#4 <= 0
 c141: S#11#5 <= 0
 c142: S#11#6 <= 0
 c143: S#11#7 <= 0
 c144: S#11#8 <= 5
 c145: S#11#9 <= 10
 c146: S#12#0 <= 4
 c147: S#12#1 <= 2
 c148: S#12#2 <= 0
 c149: S#12#3 <= 0
 c150: S#12#4 <= 6
 c151: S#12#5 <= 0
 c152: S#12#6 <= 1
 c153: S#12#7 <= 0
 c154: S#12#8 <= 9
 c155: S#12#9 <= 0
 c156: S#13#0 <= 1
 c157: S#13#1 <= 0
 c158: S#13#2 <= 7
 c159: S#13#3 <= 2
 c160: S#13#4 <= 0
 c161: S#13#5 <= 5
 c162: S#13#6 <= 0
 c163: S#13#7 <= 0
 c164: S#13#8 <= 0
 c165: S#13#9 <= 0
 c166: S#14#0 <= 1
 c167: S#14#1 <= 4
 c168: S#14#2 <= 0
 c169: S#14#3 <= 10
 c170: S#14#4 <= 10
 c171: S#14#5 <= 0
 c172: S#14#6 <= 10
 c173: S#14#7 <= 0
 c174: S#14#8 <= 5
 c175: S#14#9 <= 0
 c176: S#15#0 <= 0
 c177: S#15#1 <= 8
 c178: S#15#2 <= 4
 c179: S#15#3 <= 5
 c180: S#15#4 <= 0
 c181: S#15#5 <= 8
 c182: S#15#6 <= 1
 c183: S#15#7 <= 3
 c184: S#15#8 <= 0
 c185: S#15#9 <= 0
 c186: S#16#0 <= 6
 c187: S#16#1 <= 3
 c188: S#16#2 <= 5
 c189: S#16#3 <= 0
 c190: S#16#4 <= 9
 c191: S#16#5 <= 7
 c192: S#16#6 <= 6
 c193: S#16#7 <= 0
 c194: S#16#8 <= 0
 c195: S#16#9 <= 7
 c196: S#17#0 <= 0
 c197: S#17#1 <= 2
 c198: S#17#2 <= 0
 c199: S#17#3 <= 0
 c200: S#17#4 <= 0
 c201: S#17#5 <= 0
 c202: S#17#6 <= 0
 c203: S#17#7 <= 0
 c204: S#17#8 <= 6
 c205: S#17#9 <= 10
 c206: S#18#0 <= 0
 c207: S#18#1 <= 0
 c208: S#18#2 <= 5
 c209: S#18#3 <= 0
 c210: S#18#4 <= 0
 c211: S#18#5 <= 0
 c212: S#18#6 <= 0
 c213: S#18#7 <= 0
 c214: S#18#8 <= 9
 c215: S#18#9 <= 0
 c216: S#19#0 <= 0
 c217: S#19#1 <= 0
 c218: S#19#2 <= 0
 c219: S#19#3 <= 4
 c220: S#19#4 <= 6
 c221: S#19#5 <= 7
 c222: S#19#6 <= 0
 c223: S#19#7 <= 0
 c224: S#19#8 <= 10
 c225: S#19#9 <= 0
 c226: S#20#0 <= 6
 c227: S#20#1 <= 10
 c228: S#20#2 <= 0
 c229: S#20#3 <= 0
 c230: S#20#4 <= 0
 c231: S#20#5 <= 0
 c232: S#20#6 <= 1
 c233: S#20#7 <= 5
 c234: S#20#8 <= 0
 c235: S#20#9 <= 0
 c236: S#21#0 <= 0
 c237: S#21#1 <= 0
 c238: S#21#2 <= 0
 c239: S#21#3 <= 0
 c240: S#21#4 <= 5
 c241: S#21#5 <= 10
 c242: S#21#6 <= 0
 c243: S#21#7 <= 4
 c244: S#21#8 <= 1
 c245: S#21#9 <= 0
 c246: S#22#0 <= 0
 c247: S#22#1 <= 0
 c248: S#22#2 <= 0
 c249: S#22#3 <= 0
 c250: S#22#4 <= 2
 c251: S#22#5 <= 0
 c252: S#22#6 <= 1
 c253: S#22#7 <= 0
 c254: S#22#8 <= 0
 c255: S#22#9 <= 0
 c256: S#23#0 <= 0
 c257: S#23#1 <= 8
 c258: S#23#2 <= 0
 c259: S#23#3 <= 0
 c260: S#23#4 <= 0
 c261: S#23#5 <= 0
 c262: S#23#6 <= 0
 c263: S#23#7 <= 8
 c264: S#23#8 <= 1
 c265: S#23#9 <= 1
 c266: S#24#0 <= 0
 c267: S#24#1 <= 0
 c268: S#24#2 <= 2
 c269: S#24#3 <= 4
 c270: S#24#4 <= 5
 c271: S#24#5 <= 0
 c272: S#24#6 <= 0
 c273: S#24#7 <= 0
 c274: S#24#8 <= 4
 c275: S#24#9 <= 6
 c276: S#0#0 + S#1#0 + S#2#0 + S#3#0 + S#4#0 + S#5#0 + S#6#0 + S#7#0 + S#8#0
       + S#9#0 + S#10#0 + S#11#0 + S#12#0 + S#13#0 + S#14#0 + S#15#0 + S#16#0
       + S#17#0 + S#18#0 + S#19#0 + S#20#0 + S#21#0 + S#22#0 + S#23#0 + S#24#0
        = 7
 c277: S#0#1 + S#1#1 + S#2#1 + S#3#1 + S#4#1 + S#5#1 + S#6#1 + S#7#1 + S#8#1
       + S#9#1 + S#10#1 + S#11#1 + S#12#1 + S#13#1 + S#14#1 + S#15#1 + S#16#1
       + S#17#1 + S#18#1 + S#19#1 + S#20#1 + S#21#1 + S#22#1 + S#23#1 + S#24#1
        = 1
 c278: S#0#2 + S#1#2 + S#2#2 + S#3#2 + S#4#2 + S#5#2 + S#6#2 + S#7#2 + S#8#2
       + S#9#2 + S#10#2 + S#11#2 + S#12#2 + S#13#2 + S#14#2 + S#15#2 + S#16#2
       + S#17#2 + S#18#2 + S#19#2 + S#20#2 + S#21#2 + S#22#2 + S#23#2 + S#24#2
        = 10
 c279: S#0#3 + S#1#3 + S#2#3 + S#3#3 + S#4#3 + S#5#3 + S#6#3 + S#7#3 + S#8#3
       + S#9#3 + S#10#3 + S#11#3 + S#12#3 + S#13#3 + S#14#3 + S#15#3 + S#16#3
       + S#17#3 + S#18#3 + S#19#3 + S#20#3 + S#21#3 + S#22#3 + S#23#3 + S#24#3
        = 1
 c280: S#0#4 + S#1#4 + S#2#4 + S#3#4 + S#4#4 + S#5#4 + S#6#4 + S#7#4 + S#8#4
       + S#9#4 + S#10#4 + S#11#4 + S#12#4 + S#13#4 + S#14#4 + S#15#4 + S#16#4
       + S#17#4 + S#18#4 + S#19#4 + S#20#4 + S#21#4 + S#22#4 + S#23#4 + S#24#4
        = 2
 c281: S#0#5 + S#1#5 + S#2#5 + S#3#5 + S#4#5 + S#5#5 + S#6#5 + S#7#5 + S#8#5
       + S#9#5 + S#10#5 + S#11#5 + S#12#5 + S#13#5 + S#14#5 + S#15#5 + S#16#5
       + S#17#5 + S#18#5 + S#19#5 + S#20#5 + S#21#5 + S#22#5 + S#23#5 + S#24#5
        = 4
 c282: S#0#6 + S#1#6 + S#2#6 + S#3#6 + S#4#6 + S#5#6 + S#6#6 + S#7#6 + S#8#6
       + S#9#6 + S#10#6 + S#11#6 + S#12#6 + S#13#6 + S#14#6 + S#15#6 + S#16#6
       + S#17#6 + S#18#6 + S#19#6 + S#20#6 + S#21#6 + S#22#6 + S#23#6 + S#24#6
        = 9
 c283: S#0#7 + S#1#7 + S#2#7 + S#3#7 + S#4#7 + S#5#7 + S#6#7 + S#7#7 + S#8#7
       + S#9#7 + S#10#7 + S#11#7 + S#12#7 + S#13#7 + S#14#7 + S#15#7 + S#16#7
       + S#17#7 + S#18#7 + S#19#7 + S#20#7 + S#21#7 + S#22#7 + S#23#7 + S#24#7
        = 3
 c284: S#0#8 + S#1#8 + S#2#8 + S#3#8 + S#4#8 + S#5#8 + S#6#8 + S#7#8 + S#8#8
       + S#9#8 + S#10#8 + S#11#8 + S#12#8 + S#13#8 + S#14#8 + S#15#8 + S#16#8
       + S#17#8 + S#18#8 + S#19#8 + S#20#8 + S#21#8 + S#22#8 + S#23#8 + S#24#8
        = 6
 c285: S#0#9 + S#1#9 + S#2#9 + S#3#9 + S#4#9 + S#5#9 + S#6#9 + S#7#9 + S#8#9
       + S#9#9 + S#10#9 + S#11#9 + S#12#9 + S#13#9 + S#14#9 + S#15#9 + S#16#9
       + S#17#9 + S#18#9 + S#19#9 + S#20#9 + S#21#9 + S#22#9 + S#23#9 + S#24#9
        = 3
 i1:   x276 = 1 <-> S#0#0 + S#0#1 + S#0#2 + S#0#3 + S#0#4 + S#0#5 + S#0#6
       + S#0#7 + S#0#8 + S#0#9  = 0
 i2:   x277 = 1 <-> y(0)  = 0
 i3:   x276 = 1 -> x277  = 1
 i4:   x279 = 1 <-> S#0#0 + S#0#1 + S#0#2 + S#0#3 + S#0#4 + S#0#5 + S#0#6
       + S#0#7 + S#0#8 + S#0#9  = 0
 i5:   x280 = 1 <-> y(0)  = 1
 i6:   x278 = 1 -> x280  = 1
 i7:   x281 = 1 <-> S#1#0 + S#1#1 + S#1#2 + S#1#3 + S#1#4 + S#1#5 + S#1#6
       + S#1#7 + S#1#8 + S#1#9  = 0
 i8:   x282 = 1 <-> y(1)  = 0
 i9:   x281 = 1 -> x282  = 1
 i10:  x284 = 1 <-> S#1#0 + S#1#1 + S#1#2 + S#1#3 + S#1#4 + S#1#5 + S#1#6
       + S#1#7 + S#1#8 + S#1#9  = 0
 i11:  x285 = 1 <-> y(1)  = 1
 i12:  x283 = 1 -> x285  = 1
 i13:  x286 = 1 <-> S#2#0 + S#2#1 + S#2#2 + S#2#3 + S#2#4 + S#2#5 + S#2#6
       + S#2#7 + S#2#8 + S#2#9  = 0
 i14:  x287 = 1 <-> y(2)  = 0
 i15:  x286 = 1 -> x287  = 1
 i16:  x289 = 1 <-> S#2#0 + S#2#1 + S#2#2 + S#2#3 + S#2#4 + S#2#5 + S#2#6
       + S#2#7 + S#2#8 + S#2#9  = 0
 i17:  x290 = 1 <-> y(2)  = 1
 i18:  x288 = 1 -> x290  = 1
 i19:  x291 = 1 <-> S#3#0 + S#3#1 + S#3#2 + S#3#3 + S#3#4 + S#3#5 + S#3#6
       + S#3#7 + S#3#8 + S#3#9  = 0
 i20:  x292 = 1 <-> y(3)  = 0
 i21:  x291 = 1 -> x292  = 1
 i22:  x294 = 1 <-> S#3#0 + S#3#1 + S#3#2 + S#3#3 + S#3#4 + S#3#5 + S#3#6
       + S#3#7 + S#3#8 + S#3#9  = 0
 i23:  x295 = 1 <-> y(3)  = 1
 i24:  x293 = 1 -> x295  = 1
 i25:  x296 = 1 <-> S#4#0 + S#4#1 + S#4#2 + S#4#3 + S#4#4 + S#4#5 + S#4#6
       + S#4#7 + S#4#8 + S#4#9  = 0
 i26:  x297 = 1 <-> y(4)  = 0
 i27:  x296 = 1 -> x297  = 1
 i28:  x299 = 1 <-> S#4#0 + S#4#1 + S#4#2 + S#4#3 + S#4#4 + S#4#5 + S#4#6
       + S#4#7 + S#4#8 + S#4#9  = 0
 i29:  x300 = 1 <-> y(4)  = 1
 i30:  x298 = 1 -> x300  = 1
 i31:  x301 = 1 <-> S#5#0 + S#5#1 + S#5#2 + S#5#3 + S#5#4 + S#5#5 + S#5#6
       + S#5#7 + S#5#8 + S#5#9  = 0
 i32:  x302 = 1 <-> y(5)  = 0
 i33:  x301 = 1 -> x302  = 1
 i34:  x304 = 1 <-> S#5#0 + S#5#1 + S#5#2 + S#5#3 + S#5#4 + S#5#5 + S#5#6
       + S#5#7 + S#5#8 + S#5#9  = 0
 i35:  x305 = 1 <-> y(5)  = 1
 i36:  x303 = 1 -> x305  = 1
 i37:  x306 = 1 <-> S#6#0 + S#6#1 + S#6#2 + S#6#3 + S#6#4 + S#6#5 + S#6#6
       + S#6#7 + S#6#8 + S#6#9  = 0
 i38:  x307 = 1 <-> y(6)  = 0
 i39:  x306 = 1 -> x307  = 1
 i40:  x309 = 1 <-> S#6#0 + S#6#1 + S#6#2 + S#6#3 + S#6#4 + S#6#5 + S#6#6
       + S#6#7 + S#6#8 + S#6#9  = 0
 i41:  x310 = 1 <-> y(6)  = 1
 i42:  x308 = 1 -> x310  = 1
 i43:  x311 = 1 <-> S#7#0 + S#7#1 + S#7#2 + S#7#3 + S#7#4 + S#7#5 + S#7#6
       + S#7#7 + S#7#8 + S#7#9  = 0
 i44:  x312 = 1 <-> y(7)  = 0
 i45:  x311 = 1 -> x312  = 1
 i46:  x314 = 1 <-> S#7#0 + S#7#1 + S#7#2 + S#7#3 + S#7#4 + S#7#5 + S#7#6
       + S#7#7 + S#7#8 + S#7#9  = 0
 i47:  x315 = 1 <-> y(7)  = 1
 i48:  x313 = 1 -> x315  = 1
 i49:  x316 = 1 <-> S#8#0 + S#8#1 + S#8#2 + S#8#3 + S#8#4 + S#8#5 + S#8#6
       + S#8#7 + S#8#8 + S#8#9  = 0
 i50:  x317 = 1 <-> y(8)  = 0
 i51:  x316 = 1 -> x317  = 1
 i52:  x319 = 1 <-> S#8#0 + S#8#1 + S#8#2 + S#8#3 + S#8#4 + S#8#5 + S#8#6
       + S#8#7 + S#8#8 + S#8#9  = 0
 i53:  x320 = 1 <-> y(8)  = 1
 i54:  x318 = 1 -> x320  = 1
 i55:  x321 = 1 <-> S#9#0 + S#9#1 + S#9#2 + S#9#3 + S#9#4 + S#9#5 + S#9#6
       + S#9#7 + S#9#8 + S#9#9  = 0
 i56:  x322 = 1 <-> y(9)  = 0
 i57:  x321 = 1 -> x322  = 1
 i58:  x324 = 1 <-> S#9#0 + S#9#1 + S#9#2 + S#9#3 + S#9#4 + S#9#5 + S#9#6
       + S#9#7 + S#9#8 + S#9#9  = 0
 i59:  x325 = 1 <-> y(9)  = 1
 i60:  x323 = 1 -> x325  = 1
 i61:  x326 = 1 <-> S#10#0 + S#10#1 + S#10#2 + S#10#3 + S#10#4 + S#10#5
       + S#10#6 + S#10#7 + S#10#8 + S#10#9  = 0
 i62:  x327 = 1 <-> y(10)  = 0
 i63:  x326 = 1 -> x327  = 1
 i64:  x329 = 1 <-> S#10#0 + S#10#1 + S#10#2 + S#10#3 + S#10#4 + S#10#5
       + S#10#6 + S#10#7 + S#10#8 + S#10#9  = 0
 i65:  x330 = 1 <-> y(10)  = 1
 i66:  x328 = 1 -> x330  = 1
 i67:  x331 = 1 <-> S#11#0 + S#11#1 + S#11#2 + S#11#3 + S#11#4 + S#11#5
       + S#11#6 + S#11#7 + S#11#8 + S#11#9  = 0
 i68:  x332 = 1 <-> y(11)  = 0
 i69:  x331 = 1 -> x332  = 1
 i70:  x334 = 1 <-> S#11#0 + S#11#1 + S#11#2 + S#11#3 + S#11#4 + S#11#5
       + S#11#6 + S#11#7 + S#11#8 + S#11#9  = 0
 i71:  x335 = 1 <-> y(11)  = 1
 i72:  x333 = 1 -> x335  = 1
 i73:  x336 = 1 <-> S#12#0 + S#12#1 + S#12#2 + S#12#3 + S#12#4 + S#12#5
       + S#12#6 + S#12#7 + S#12#8 + S#12#9  = 0
 i74:  x337 = 1 <-> y(12)  = 0
 i75:  x336 = 1 -> x337  = 1
 i76:  x339 = 1 <-> S#12#0 + S#12#1 + S#12#2 + S#12#3 + S#12#4 + S#12#5
       + S#12#6 + S#12#7 + S#12#8 + S#12#9  = 0
 i77:  x340 = 1 <-> y(12)  = 1
 i78:  x338 = 1 -> x340  = 1
 i79:  x341 = 1 <-> S#13#0 + S#13#1 + S#13#2 + S#13#3 + S#13#4 + S#13#5
       + S#13#6 + S#13#7 + S#13#8 + S#13#9  = 0
 i80:  x342 = 1 <-> y(13)  = 0
 i81:  x341 = 1 -> x342  = 1
 i82:  x344 = 1 <-> S#13#0 + S#13#1 + S#13#2 + S#13#3 + S#13#4 + S#13#5
       + S#13#6 + S#13#7 + S#13#8 + S#13#9  = 0
 i83:  x345 = 1 <-> y(13)  = 1
 i84:  x343 = 1 -> x345  = 1
 i85:  x346 = 1 <-> S#14#0 + S#14#1 + S#14#2 + S#14#3 + S#14#4 + S#14#5
       + S#14#6 + S#14#7 + S#14#8 + S#14#9  = 0
 i86:  x347 = 1 <-> y(14)  = 0
 i87:  x346 = 1 -> x347  = 1
 i88:  x349 = 1 <-> S#14#0 + S#14#1 + S#14#2 + S#14#3 + S#14#4 + S#14#5
       + S#14#6 + S#14#7 + S#14#8 + S#14#9  = 0
 i89:  x350 = 1 <-> y(14)  = 1
 i90:  x348 = 1 -> x350  = 1
 i91:  x351 = 1 <-> S#15#0 + S#15#1 + S#15#2 + S#15#3 + S#15#4 + S#15#5
       + S#15#6 + S#15#7 + S#15#8 + S#15#9  = 0
 i92:  x352 = 1 <-> y(15)  = 0
 i93:  x351 = 1 -> x352  = 1
 i94:  x354 = 1 <-> S#15#0 + S#15#1 + S#15#2 + S#15#3 + S#15#4 + S#15#5
       + S#15#6 + S#15#7 + S#15#8 + S#15#9  = 0
 i95:  x355 = 1 <-> y(15)  = 1
 i96:  x353 = 1 -> x355  = 1
 i97:  x356 = 1 <-> S#16#0 + S#16#1 + S#16#2 + S#16#3 + S#16#4 + S#16#5
       + S#16#6 + S#16#7 + S#16#8 + S#16#9  = 0
 i98:  x357 = 1 <-> y(16)  = 0
 i99:  x356 = 1 -> x357  = 1
 i100: x359 = 1 <-> S#16#0 + S#16#1 + S#16#2 + S#16#3 + S#16#4 + S#16#5
       + S#16#6 + S#16#7 + S#16#8 + S#16#9  = 0
 i101: x360 = 1 <-> y(16)  = 1
 i102: x358 = 1 -> x360  = 1
 i103: x361 = 1 <-> S#17#0 + S#17#1 + S#17#2 + S#17#3 + S#17#4 + S#17#5
       + S#17#6 + S#17#7 + S#17#8 + S#17#9  = 0
 i104: x362 = 1 <-> y(17)  = 0
 i105: x361 = 1 -> x362  = 1
 i106: x364 = 1 <-> S#17#0 + S#17#1 + S#17#2 + S#17#3 + S#17#4 + S#17#5
       + S#17#6 + S#17#7 + S#17#8 + S#17#9  = 0
 i107: x365 = 1 <-> y(17)  = 1
 i108: x363 = 1 -> x365  = 1
 i109: x366 = 1 <-> S#18#0 + S#18#1 + S#18#2 + S#18#3 + S#18#4 + S#18#5
       + S#18#6 + S#18#7 + S#18#8 + S#18#9  = 0
 i110: x367 = 1 <-> y(18)  = 0
 i111: x366 = 1 -> x367  = 1
 i112: x369 = 1 <-> S#18#0 + S#18#1 + S#18#2 + S#18#3 + S#18#4 + S#18#5
       + S#18#6 + S#18#7 + S#18#8 + S#18#9  = 0
 i113: x370 = 1 <-> y(18)  = 1
 i114: x368 = 1 -> x370  = 1
 i115: x371 = 1 <-> S#19#0 + S#19#1 + S#19#2 + S#19#3 + S#19#4 + S#19#5
       + S#19#6 + S#19#7 + S#19#8 + S#19#9  = 0
 i116: x372 = 1 <-> y(19)  = 0
 i117: x371 = 1 -> x372  = 1
 i118: x374 = 1 <-> S#19#0 + S#19#1 + S#19#2 + S#19#3 + S#19#4 + S#19#5
       + S#19#6 + S#19#7 + S#19#8 + S#19#9  = 0
 i119: x375 = 1 <-> y(19)  = 1
 i120: x373 = 1 -> x375  = 1
 i121: x376 = 1 <-> S#20#0 + S#20#1 + S#20#2 + S#20#3 + S#20#4 + S#20#5
       + S#20#6 + S#20#7 + S#20#8 + S#20#9  = 0
 i122: x377 = 1 <-> y(20)  = 0
 i123: x376 = 1 -> x377  = 1
 i124: x379 = 1 <-> S#20#0 + S#20#1 + S#20#2 + S#20#3 + S#20#4 + S#20#5
       + S#20#6 + S#20#7 + S#20#8 + S#20#9  = 0
 i125: x380 = 1 <-> y(20)  = 1
 i126: x378 = 1 -> x380  = 1
 i127: x381 = 1 <-> S#21#0 + S#21#1 + S#21#2 + S#21#3 + S#21#4 + S#21#5
       + S#21#6 + S#21#7 + S#21#8 + S#21#9  = 0
 i128: x382 = 1 <-> y(21)  = 0
 i129: x381 = 1 -> x382  = 1
 i130: x384 = 1 <-> S#21#0 + S#21#1 + S#21#2 + S#21#3 + S#21#4 + S#21#5
       + S#21#6 + S#21#7 + S#21#8 + S#21#9  = 0
 i131: x385 = 1 <-> y(21)  = 1
 i132: x383 = 1 -> x385  = 1
 i133: x386 = 1 <-> S#22#0 + S#22#1 + S#22#2 + S#22#3 + S#22#4 + S#22#5
       + S#22#6 + S#22#7 + S#22#8 + S#22#9  = 0
 i134: x387 = 1 <-> y(22)  = 0
 i135: x386 = 1 -> x387  = 1
 i136: x389 = 1 <-> S#22#0 + S#22#1 + S#22#2 + S#22#3 + S#22#4 + S#22#5
       + S#22#6 + S#22#7 + S#22#8 + S#22#9  = 0
 i137: x390 = 1 <-> y(22)  = 1
 i138: x388 = 1 -> x390  = 1
 i139: x391 = 1 <-> S#23#0 + S#23#1 + S#23#2 + S#23#3 + S#23#4 + S#23#5
       + S#23#6 + S#23#7 + S#23#8 + S#23#9  = 0
 i140: x392 = 1 <-> y(23)  = 0
 i141: x391 = 1 -> x392  = 1
 i142: x394 = 1 <-> S#23#0 + S#23#1 + S#23#2 + S#23#3 + S#23#4 + S#23#5
       + S#23#6 + S#23#7 + S#23#8 + S#23#9  = 0
 i143: x395 = 1 <-> y(23)  = 1
 i144: x393 = 1 -> x395  = 1
 i145: x396 = 1 <-> S#24#0 + S#24#1 + S#24#2 + S#24#3 + S#24#4 + S#24#5
       + S#24#6 + S#24#7 + S#24#8 + S#24#9  = 0
 i146: x397 = 1 <-> y(24)  = 0
 i147: x396 = 1 -> x397  = 1
 i148: x399 = 1 <-> S#24#0 + S#24#1 + S#24#2 + S#24#3 + S#24#4 + S#24#5
       + S#24#6 + S#24#7 + S#24#8 + S#24#9  = 0
 i149: x400 = 1 <-> y(24)  = 1
 i150: x398 = 1 -> x400  = 1
Bounds
      S#0#0 >= 0
      S#0#1 >= 0
      S#0#2 >= 0
      S#0#3 >= 0
      S#0#4 >= 0
      S#0#5 >= 0
      S#0#6 >= 0
      S#0#7 >= 0
      S#0#8 >= 0
      S#0#9 >= 0
 0 <= y(0) <= 1
      S#1#0 >= 0
      S#1#1 >= 0
      S#1#2 >= 0
      S#1#3 >= 0
      S#1#4 >= 0
      S#1#5 >= 0
      S#1#6 >= 0
      S#1#7 >= 0
      S#1#8 >= 0
      S#1#9 >= 0
 0 <= y(1) <= 1
      S#2#0 >= 0
      S#2#1 >= 0
      S#2#2 >= 0
      S#2#3 >= 0
      S#2#4 >= 0
      S#2#5 >= 0
      S#2#6 >= 0
      S#2#7 >= 0
      S#2#8 >= 0
      S#2#9 >= 0
 0 <= y(2) <= 1
      S#3#0 >= 0
      S#3#1 >= 0
      S#3#2 >= 0
      S#3#3 >= 0
      S#3#4 >= 0
      S#3#5 >= 0
      S#3#6 >= 0
      S#3#7 >= 0
      S#3#8 >= 0
      S#3#9 >= 0
 0 <= y(3) <= 1
      S#4#0 >= 0
      S#4#1 >= 0
      S#4#2 >= 0
      S#4#3 >= 0
      S#4#4 >= 0
      S#4#5 >= 0
      S#4#6 >= 0
      S#4#7 >= 0
      S#4#8 >= 0
      S#4#9 >= 0
 0 <= y(4) <= 1
      S#5#0 >= 0
      S#5#1 >= 0
      S#5#2 >= 0
      S#5#3 >= 0
      S#5#4 >= 0
      S#5#5 >= 0
      S#5#6 >= 0
      S#5#7 >= 0
      S#5#8 >= 0
      S#5#9 >= 0
 0 <= y(5) <= 1
      S#6#0 >= 0
      S#6#1 >= 0
      S#6#2 >= 0
      S#6#3 >= 0
      S#6#4 >= 0
      S#6#5 >= 0
      S#6#6 >= 0
      S#6#7 >= 0
      S#6#8 >= 0
      S#6#9 >= 0
 0 <= y(6) <= 1
      S#7#0 >= 0
      S#7#1 >= 0
      S#7#2 >= 0
      S#7#3 >= 0
      S#7#4 >= 0
      S#7#5 >= 0
      S#7#6 >= 0
      S#7#7 >= 0
      S#7#8 >= 0
      S#7#9 >= 0
 0 <= y(7) <= 1
      S#8#0 >= 0
      S#8#1 >= 0
      S#8#2 >= 0
      S#8#3 >= 0
      S#8#4 >= 0
      S#8#5 >= 0
      S#8#6 >= 0
      S#8#7 >= 0
      S#8#8 >= 0
      S#8#9 >= 0
 0 <= y(8) <= 1
      S#9#0 >= 0
      S#9#1 >= 0
      S#9#2 >= 0
      S#9#3 >= 0
      S#9#4 >= 0
      S#9#5 >= 0
      S#9#6 >= 0
      S#9#7 >= 0
      S#9#8 >= 0
      S#9#9 >= 0
 0 <= y(9) <= 1
      S#10#0 >= 0
      S#10#1 >= 0
      S#10#2 >= 0
      S#10#3 >= 0
      S#10#4 >= 0
      S#10#5 >= 0
      S#10#6 >= 0
      S#10#7 >= 0
      S#10#8 >= 0
      S#10#9 >= 0
 0 <= y(10) <= 1
      S#11#0 >= 0
      S#11#1 >= 0
      S#11#2 >= 0
      S#11#3 >= 0
      S#11#4 >= 0
      S#11#5 >= 0
      S#11#6 >= 0
      S#11#7 >= 0
      S#11#8 >= 0
      S#11#9 >= 0
 0 <= y(11) <= 1
      S#12#0 >= 0
      S#12#1 >= 0
      S#12#2 >= 0
      S#12#3 >= 0
      S#12#4 >= 0
      S#12#5 >= 0
      S#12#6 >= 0
      S#12#7 >= 0
      S#12#8 >= 0
      S#12#9 >= 0
 0 <= y(12) <= 1
      S#13#0 >= 0
      S#13#1 >= 0
      S#13#2 >= 0
      S#13#3 >= 0
      S#13#4 >= 0
      S#13#5 >= 0
      S#13#6 >= 0
      S#13#7 >= 0
      S#13#8 >= 0
      S#13#9 >= 0
 0 <= y(13) <= 1
      S#14#0 >= 0
      S#14#1 >= 0
      S#14#2 >= 0
      S#14#3 >= 0
      S#14#4 >= 0
      S#14#5 >= 0
      S#14#6 >= 0
      S#14#7 >= 0
      S#14#8 >= 0
      S#14#9 >= 0
 0 <= y(14) <= 1
      S#15#0 >= 0
      S#15#1 >= 0
      S#15#2 >= 0
      S#15#3 >= 0
      S#15#4 >= 0
      S#15#5 >= 0
      S#15#6 >= 0
      S#15#7 >= 0
      S#15#8 >= 0
      S#15#9 >= 0
 0 <= y(15) <= 1
      S#16#0 >= 0
      S#16#1 >= 0
      S#16#2 >= 0
      S#16#3 >= 0
      S#16#4 >= 0
      S#16#5 >= 0
      S#16#6 >= 0
      S#16#7 >= 0
      S#16#8 >= 0
      S#16#9 >= 0
 0 <= y(16) <= 1
      S#17#0 >= 0
      S#17#1 >= 0
      S#17#2 >= 0
      S#17#3 >= 0
      S#17#4 >= 0
      S#17#5 >= 0
      S#17#6 >= 0
      S#17#7 >= 0
      S#17#8 >= 0
      S#17#9 >= 0
 0 <= y(17) <= 1
      S#18#0 >= 0
      S#18#1 >= 0
      S#18#2 >= 0
      S#18#3 >= 0
      S#18#4 >= 0
      S#18#5 >= 0
      S#18#6 >= 0
      S#18#7 >= 0
      S#18#8 >= 0
      S#18#9 >= 0
 0 <= y(18) <= 1
      S#19#0 >= 0
      S#19#1 >= 0
      S#19#2 >= 0
      S#19#3 >= 0
      S#19#4 >= 0
      S#19#5 >= 0
      S#19#6 >= 0
      S#19#7 >= 0
      S#19#8 >= 0
      S#19#9 >= 0
 0 <= y(19) <= 1
      S#20#0 >= 0
      S#20#1 >= 0
      S#20#2 >= 0
      S#20#3 >= 0
      S#20#4 >= 0
      S#20#5 >= 0
      S#20#6 >= 0
      S#20#7 >= 0
      S#20#8 >= 0
      S#20#9 >= 0
 0 <= y(20) <= 1
      S#21#0 >= 0
      S#21#1 >= 0
      S#21#2 >= 0
      S#21#3 >= 0
      S#21#4 >= 0
      S#21#5 >= 0
      S#21#6 >= 0
      S#21#7 >= 0
      S#21#8 >= 0
      S#21#9 >= 0
 0 <= y(21) <= 1
      S#22#0 >= 0
      S#22#1 >= 0
      S#22#2 >= 0
      S#22#3 >= 0
      S#22#4 >= 0
      S#22#5 >= 0
      S#22#6 >= 0
      S#22#7 >= 0
      S#22#8 >= 0
      S#22#9 >= 0
 0 <= y(22) <= 1
      S#23#0 >= 0
      S#23#1 >= 0
      S#23#2 >= 0
      S#23#3 >= 0
      S#23#4 >= 0
      S#23#5 >= 0
      S#23#6 >= 0
      S#23#7 >= 0
      S#23#8 >= 0
      S#23#9 >= 0
 0 <= y(23) <= 1
      S#24#0 >= 0
      S#24#1 >= 0
      S#24#2 >= 0
      S#24#3 >= 0
      S#24#4 >= 0
      S#24#5 >= 0
      S#24#6 >= 0
      S#24#7 >= 0
      S#24#8 >= 0
      S#24#9 >= 0
 0 <= y(24) <= 1
 0 <= x276 <= 1
 0 <= x277 <= 1
 0 <= x278 <= 1
 0 <= x279 <= 1
 0 <= x280 <= 1
 0 <= x281 <= 1
 0 <= x282 <= 1
 0 <= x283 <= 1
 0 <= x284 <= 1
 0 <= x285 <= 1
 0 <= x286 <= 1
 0 <= x287 <= 1
 0 <= x288 <= 1
 0 <= x289 <= 1
 0 <= x290 <= 1
 0 <= x291 <= 1
 0 <= x292 <= 1
 0 <= x293 <= 1
 0 <= x294 <= 1
 0 <= x295 <= 1
 0 <= x296 <= 1
 0 <= x297 <= 1
 0 <= x298 <= 1
 0 <= x299 <= 1
 0 <= x300 <= 1
 0 <= x301 <= 1
 0 <= x302 <= 1
 0 <= x303 <= 1
 0 <= x304 <= 1
 0 <= x305 <= 1
 0 <= x306 <= 1
 0 <= x307 <= 1
 0 <= x308 <= 1
 0 <= x309 <= 1
 0 <= x310 <= 1
 0 <= x311 <= 1
 0 <= x312 <= 1
 0 <= x313 <= 1
 0 <= x314 <= 1
 0 <= x315 <= 1
 0 <= x316 <= 1
 0 <= x317 <= 1
 0 <= x318 <= 1
 0 <= x319 <= 1
 0 <= x320 <= 1
 0 <= x321 <= 1
 0 <= x322 <= 1
 0 <= x323 <= 1
 0 <= x324 <= 1
 0 <= x325 <= 1
 0 <= x326 <= 1
 0 <= x327 <= 1
 0 <= x328 <= 1
 0 <= x329 <= 1
 0 <= x330 <= 1
 0 <= x331 <= 1
 0 <= x332 <= 1
 0 <= x333 <= 1
 0 <= x334 <= 1
 0 <= x335 <= 1
 0 <= x336 <= 1
 0 <= x337 <= 1
 0 <= x338 <= 1
 0 <= x339 <= 1
 0 <= x340 <= 1
 0 <= x341 <= 1
 0 <= x342 <= 1
 0 <= x343 <= 1
 0 <= x344 <= 1
 0 <= x345 <= 1
 0 <= x346 <= 1
 0 <= x347 <= 1
 0 <= x348 <= 1
 0 <= x349 <= 1
 0 <= x350 <= 1
 0 <= x351 <= 1
 0 <= x352 <= 1
 0 <= x353 <= 1
 0 <= x354 <= 1
 0 <= x355 <= 1
 0 <= x356 <= 1
 0 <= x357 <= 1
 0 <= x358 <= 1
 0 <= x359 <= 1
 0 <= x360 <= 1
 0 <= x361 <= 1
 0 <= x362 <= 1
 0 <= x363 <= 1
 0 <= x364 <= 1
 0 <= x365 <= 1
 0 <= x366 <= 1
 0 <= x367 <= 1
 0 <= x368 <= 1
 0 <= x369 <= 1
 0 <= x370 <= 1
 0 <= x371 <= 1
 0 <= x372 <= 1
 0 <= x373 <= 1
 0 <= x374 <= 1
 0 <= x375 <= 1
 0 <= x376 <= 1
 0 <= x377 <= 1
 0 <= x378 <= 1
 0 <= x379 <= 1
 0 <= x380 <= 1
 0 <= x381 <= 1
 0 <= x382 <= 1
 0 <= x383 <= 1
 0 <= x384 <= 1
 0 <= x385 <= 1
 0 <= x386 <= 1
 0 <= x387 <= 1
 0 <= x388 <= 1
 0 <= x389 <= 1
 0 <= x390 <= 1
 0 <= x391 <= 1
 0 <= x392 <= 1
 0 <= x393 <= 1
 0 <= x394 <= 1
 0 <= x395 <= 1
 0 <= x396 <= 1
 0 <= x397 <= 1
 0 <= x398 <= 1
 0 <= x399 <= 1
 0 <= x400 <= 1
Binaries
 y(0)  y(1)  y(2)  y(3)  y(4)  y(5)  y(6)  y(7)  y(8)  y(9)  y(10)  y(11) 
 y(12)  y(13)  y(14)  y(15)  y(16)  y(17)  y(18)  y(19)  y(20)  y(21)  y(22) 
 y(23)  y(24)  x276  x277  x278  x279  x280  x281  x282  x283  x284  x285 
 x286  x287  x288  x289  x290  x291  x292  x293  x294  x295  x296  x297  x298 
 x299  x300  x301  x302  x303  x304  x305  x306  x307  x308  x309  x310  x311 
 x312  x313  x314  x315  x316  x317  x318  x319  x320  x321  x322  x323  x324 
 x325  x326  x327  x328  x329  x330  x331  x332  x333  x334  x335  x336  x337 
 x338  x339  x340  x341  x342  x343  x344  x345  x346  x347  x348  x349  x350 
 x351  x352  x353  x354  x355  x356  x357  x358  x359  x360  x361  x362  x363 
 x364  x365  x366  x367  x368  x369  x370  x371  x372  x373  x374  x375  x376 
 x377  x378  x379  x380  x381  x382  x383  x384  x385  x386  x387  x388  x389 
 x390  x391  x392  x393  x394  x395  x396  x397  x398  x399  x400 
Generals
 S#0#0  S#0#1  S#0#2  S#0#3  S#0#4  S#0#5  S#0#6  S#0#7  S#0#8  S#0#9  S#1#0 
 S#1#1  S#1#2  S#1#3  S#1#4  S#1#5  S#1#6  S#1#7  S#1#8  S#1#9  S#2#0  S#2#1 
 S#2#2  S#2#3  S#2#4  S#2#5  S#2#6  S#2#7  S#2#8  S#2#9  S#3#0  S#3#1  S#3#2 
 S#3#3  S#3#4  S#3#5  S#3#6  S#3#7  S#3#8  S#3#9  S#4#0  S#4#1  S#4#2  S#4#3 
 S#4#4  S#4#5  S#4#6  S#4#7  S#4#8  S#4#9  S#5#0  S#5#1  S#5#2  S#5#3  S#5#4 
 S#5#5  S#5#6  S#5#7  S#5#8  S#5#9  S#6#0  S#6#1  S#6#2  S#6#3  S#6#4  S#6#5 
 S#6#6  S#6#7  S#6#8  S#6#9  S#7#0  S#7#1  S#7#2  S#7#3  S#7#4  S#7#5  S#7#6 
 S#7#7  S#7#8  S#7#9  S#8#0  S#8#1  S#8#2  S#8#3  S#8#4  S#8#5  S#8#6  S#8#7 
 S#8#8  S#8#9  S#9#0  S#9#1  S#9#2  S#9#3  S#9#4  S#9#5  S#9#6  S#9#7  S#9#8 
 S#9#9  S#10#0  S#10#1  S#10#2  S#10#3  S#10#4  S#10#5  S#10#6  S#10#7  S#10#8 
 S#10#9  S#11#0  S#11#1  S#11#2  S#11#3  S#11#4  S#11#5  S#11#6  S#11#7 
 S#11#8  S#11#9  S#12#0  S#12#1  S#12#2  S#12#3  S#12#4  S#12#5  S#12#6 
 S#12#7  S#12#8  S#12#9  S#13#0  S#13#1  S#13#2  S#13#3  S#13#4  S#13#5 
 S#13#6  S#13#7  S#13#8  S#13#9  S#14#0  S#14#1  S#14#2  S#14#3  S#14#4 
 S#14#5  S#14#6  S#14#7  S#14#8  S#14#9  S#15#0  S#15#1  S#15#2  S#15#3 
 S#15#4  S#15#5  S#15#6  S#15#7  S#15#8  S#15#9  S#16#0  S#16#1  S#16#2 
 S#16#3  S#16#4  S#16#5  S#16#6  S#16#7  S#16#8  S#16#9  S#17#0  S#17#1 
 S#17#2  S#17#3  S#17#4  S#17#5  S#17#6  S#17#7  S#17#8  S#17#9  S#18#0 
 S#18#1  S#18#2  S#18#3  S#18#4  S#18#5  S#18#6  S#18#7  S#18#8  S#18#9 
 S#19#0  S#19#1  S#19#2  S#19#3  S#19#4  S#19#5  S#19#6  S#19#7  S#19#8 
 S#19#9  S#20#0  S#20#1  S#20#2  S#20#3  S#20#4  S#20#5  S#20#6  S#20#7 
 S#20#8  S#20#9  S#21#0  S#21#1  S#21#2  S#21#3  S#21#4  S#21#5  S#21#6 
 S#21#7  S#21#8  S#21#9  S#22#0  S#22#1  S#22#2  S#22#3  S#22#4  S#22#5 
 S#22#6  S#22#7  S#22#8  S#22#9  S#23#0  S#23#1  S#23#2  S#23#3  S#23#4 
 S#23#5  S#23#6  S#23#7  S#23#8  S#23#9  S#24#0  S#24#1  S#24#2  S#24#3 
 S#24#4  S#24#5  S#24#6  S#24#7  S#24#8  S#24#9 
End
